c File: data_files/evolved_graphs/g7918.col
c
c Auto generated graph
c
p edge 100 17
e 2 45
e 3 53
e 3 54
e 4 10
e 5 50
e 9 100
e 11 58
e 14 43
e 15 30
e 15 34
e 16 25
e 20 27
e 22 41
e 24 26
e 38 40
e 63 77
e 70 78
